120
150
31
29
99
44
78
46
49
49
23
59
30
94
75
61
75
28
49
41
81
96
96
60
28
49
87
31
54
99
62
54
50
54
20
42
25
46
59
31
89
82
48
54
57
29
38
38
89
56
42
75
86
28
24
23
96
75
43
45
23
42
38
76
47
90
88
47
75
28
62
23
87
86
31
75
59
64
71
90
41
38
59
62
89
64
75
85
75
56
70
37
21
80
83
46
27
98
28
20
52
62
38
24
21
50
20
39
75
45
35
56
49
28
60
83
68
62
32
35
82
80
